(declare-fun bvlambda_9_ () (_ BitVec 1))
(declare-fun a98 () (Array (_ BitVec 4) (_ BitVec 8)))
(declare-fun a102 () (Array (_ BitVec 1) (_ BitVec 5)))
(assert
(let (($e1 (_ bv0 1)))
(let (($e9 (_ bv14 5)))
(let (($e21 (_ bv0 4)))
(let (($e28 (_ bv14 12)))
(let (($e32 (_ bv0  5)))
(let (($e39 (_ bv0 11)))
(let (($e47 (_ bv0 14)))
(let (($e172 (store a102 false      $e32 )))
(let (($e173 (store $e172 bvlambda_9_        $e9 )))
(let (($e174 (select $e173 true       )))
(let (($e306        (bvnot $e28 )               ))
(let (($e444 (concat $e39 $e174)))
(let (($e445 (concat $e47 $e1        )))
(let (($e446 (concat $e445 bvlambda_9_)))
(let (($e451      (=     $e446 $e444)         ))
(let (($e482 (select $e172 true              )))
(let (($e483 ((_ extract 4 1) $e482)))
(let (($e484 (select a98 $e483)))
(let (($e485 (concat $e21 $e484)))
(let (($e486        (bvnot $e485)               ))
(let (($e491      (= $e306 $e486)         ))
             (=            $e491  $e451)
                                                                                                                                                                                                                                                                                                                                                                                                                                                                                                             )    )))))                              )    )))                                                                                                                                         )                                                                                                                                   )))                                                                               )       )      )   )      )           )       ))
